param n := 60;
param c := 1000;
param : V : p w :=
   0	 388	 378
   1	 285	 275
   2	 357	 347
   3	 472	 462
   4	 271	 261
   5	 287	 277
   6	 439	 429
   7	 283	 273
   8	 308	 298
   9	 505	 495
  10	 260	 250
  11	 265	 255
  12	 381	 371
  13	 272	 262
  14	 377	 367
  15	 401	 391
  16	 303	 293
  17	 326	 316
  18	 503	 493
  19	 262	 252
  20	 265	 255
  21	 415	 405
  22	 260	 250
  23	 355	 345
  24	 471	 461
  25	 268	 258
  26	 291	 281
  27	 488	 478
  28	 267	 257
  29	 275	 265
  30	 364	 354
  31	 288	 278
  32	 378	 368
  33	 461	 451
  34	 266	 256
  35	 303	 293
  36	 495	 485
  37	 264	 254
  38	 271	 261
  39	 487	 477
  40	 268	 258
  41	 275	 265
  42	 379	 369
  43	 280	 270
  44	 371	 361
  45	 385	 375
  46	 278	 268
  47	 367	 357
  48	 424	 414
  49	 264	 254
  50	 342	 332
  51	 469	 459
  52	 273	 263
  53	 288	 278
  54	 466	 456
  55	 273	 263
  56	 291	 281
  57	 436	 426
  58	 287	 277
  59	 307	 297
;

set E :=
   0	   3
   0	   5
   0	   9
   0	  10
   0	  12
   0	  16
   0	  19
   0	  20
   0	  23
   0	  25
   0	  28
   0	  30
   0	  31
   0	  33
   0	  34
   0	  35
   0	  37
   0	  40
   0	  42
   0	  43
   0	  44
   0	  45
   0	  47
   0	  53
   0	  56
   0	  57
   0	  59
   1	   4
   1	   5
   1	   9
   1	  10
   1	  12
   1	  15
   1	  19
   1	  23
   1	  24
   1	  26
   1	  28
   1	  30
   1	  31
   1	  32
   1	  33
   1	  34
   1	  40
   1	  45
   1	  46
   1	  47
   1	  48
   1	  49
   1	  51
   1	  52
   1	  53
   1	  54
   1	  55
   1	  56
   1	  57
   1	  59
   2	   3
   2	   5
   2	   6
   2	   7
   2	   8
   2	  10
   2	  11
   2	  12
   2	  16
   2	  17
   2	  23
   2	  25
   2	  30
   2	  32
   2	  33
   2	  34
   2	  36
   2	  37
   2	  38
   2	  43
   2	  44
   2	  45
   2	  46
   2	  47
   2	  48
   2	  49
   2	  51
   2	  53
   2	  58
   2	  59
   3	   4
   3	   5
   3	  10
   3	  13
   3	  15
   3	  16
   3	  18
   3	  19
   3	  20
   3	  21
   3	  22
   3	  23
   3	  25
   3	  27
   3	  28
   3	  31
   3	  32
   3	  34
   3	  36
   3	  38
   3	  40
   3	  42
   3	  50
   3	  51
   3	  53
   3	  54
   3	  56
   3	  58
   4	   6
   4	   7
   4	   8
   4	  12
   4	  14
   4	  16
   4	  18
   4	  19
   4	  20
   4	  22
   4	  24
   4	  25
   4	  27
   4	  28
   4	  30
   4	  32
   4	  36
   4	  37
   4	  38
   4	  39
   4	  41
   4	  44
   4	  45
   4	  47
   4	  49
   4	  50
   4	  54
   4	  56
   4	  57
   4	  59
   5	   6
   5	   7
   5	   8
   5	   9
   5	  10
   5	  11
   5	  13
   5	  14
   5	  16
   5	  23
   5	  24
   5	  25
   5	  26
   5	  28
   5	  29
   5	  31
   5	  32
   5	  39
   5	  41
   5	  43
   5	  44
   5	  48
   5	  50
   5	  53
   5	  54
   5	  56
   5	  58
   5	  59
   6	   7
   6	  12
   6	  14
   6	  16
   6	  21
   6	  23
   6	  24
   6	  26
   6	  27
   6	  28
   6	  29
   6	  32
   6	  35
   6	  36
   6	  37
   6	  38
   6	  39
   6	  41
   6	  42
   6	  44
   6	  45
   6	  47
   6	  53
   6	  58
   7	   8
   7	   9
   7	  11
   7	  14
   7	  15
   7	  16
   7	  17
   7	  18
   7	  19
   7	  20
   7	  23
   7	  26
   7	  29
   7	  32
   7	  34
   7	  40
   7	  44
   7	  46
   7	  48
   7	  53
   7	  54
   7	  55
   7	  58
   8	  12
   8	  13
   8	  20
   8	  22
   8	  23
   8	  25
   8	  27
   8	  28
   8	  30
   8	  31
   8	  33
   8	  34
   8	  37
   8	  43
   8	  46
   8	  48
   8	  49
   8	  50
   8	  52
   8	  55
   8	  58
   9	  10
   9	  12
   9	  13
   9	  14
   9	  17
   9	  19
   9	  20
   9	  21
   9	  25
   9	  26
   9	  28
   9	  29
   9	  34
   9	  35
   9	  36
   9	  37
   9	  41
   9	  42
   9	  47
   9	  49
   9	  50
   9	  52
   9	  53
   9	  54
   9	  55
   9	  56
   9	  57
   9	  58
  10	  13
  10	  17
  10	  20
  10	  30
  10	  32
  10	  33
  10	  34
  10	  35
  10	  36
  10	  37
  10	  38
  10	  39
  10	  40
  10	  42
  10	  43
  10	  46
  10	  47
  10	  49
  10	  51
  10	  52
  10	  55
  10	  56
  11	  13
  11	  14
  11	  15
  11	  16
  11	  19
  11	  22
  11	  23
  11	  25
  11	  26
  11	  28
  11	  29
  11	  30
  11	  31
  11	  34
  11	  39
  11	  43
  11	  46
  11	  51
  11	  52
  11	  53
  11	  57
  12	  14
  12	  15
  12	  16
  12	  21
  12	  23
  12	  26
  12	  27
  12	  29
  12	  31
  12	  32
  12	  33
  12	  36
  12	  38
  12	  42
  12	  43
  12	  47
  12	  48
  12	  49
  12	  50
  12	  51
  12	  52
  12	  54
  12	  55
  12	  57
  12	  59
  13	  14
  13	  16
  13	  19
  13	  24
  13	  27
  13	  29
  13	  31
  13	  32
  13	  33
  13	  34
  13	  35
  13	  38
  13	  39
  13	  40
  13	  42
  13	  43
  13	  44
  13	  45
  13	  46
  13	  47
  13	  48
  13	  51
  13	  53
  13	  55
  13	  56
  13	  59
  14	  16
  14	  19
  14	  21
  14	  22
  14	  23
  14	  24
  14	  25
  14	  26
  14	  27
  14	  28
  14	  29
  14	  32
  14	  34
  14	  36
  14	  38
  14	  40
  14	  43
  14	  44
  14	  47
  14	  50
  14	  51
  14	  52
  14	  55
  14	  56
  14	  59
  15	  16
  15	  19
  15	  21
  15	  22
  15	  23
  15	  24
  15	  25
  15	  26
  15	  29
  15	  31
  15	  35
  15	  38
  15	  40
  15	  42
  15	  44
  15	  48
  15	  49
  15	  50
  15	  52
  15	  53
  15	  54
  16	  20
  16	  22
  16	  23
  16	  25
  16	  28
  16	  31
  16	  32
  16	  33
  16	  34
  16	  36
  16	  38
  16	  39
  16	  40
  16	  43
  16	  47
  16	  49
  16	  50
  16	  51
  16	  52
  16	  54
  16	  55
  16	  59
  17	  18
  17	  19
  17	  22
  17	  24
  17	  29
  17	  30
  17	  31
  17	  33
  17	  34
  17	  36
  17	  37
  17	  38
  17	  40
  17	  41
  17	  42
  17	  43
  17	  44
  17	  45
  17	  46
  17	  47
  17	  52
  17	  53
  17	  55
  18	  20
  18	  22
  18	  26
  18	  27
  18	  28
  18	  30
  18	  32
  18	  33
  18	  34
  18	  36
  18	  42
  18	  43
  18	  44
  18	  46
  18	  47
  18	  49
  18	  50
  18	  51
  18	  52
  18	  53
  18	  54
  18	  56
  19	  22
  19	  23
  19	  24
  19	  25
  19	  28
  19	  31
  19	  33
  19	  35
  19	  37
  19	  38
  19	  41
  19	  44
  19	  47
  19	  49
  19	  52
  19	  53
  19	  55
  19	  56
  19	  58
  19	  59
  20	  21
  20	  23
  20	  25
  20	  27
  20	  29
  20	  30
  20	  31
  20	  32
  20	  33
  20	  34
  20	  35
  20	  36
  20	  38
  20	  42
  20	  48
  20	  51
  20	  52
  20	  55
  20	  56
  20	  57
  20	  58
  20	  59
  21	  23
  21	  24
  21	  25
  21	  26
  21	  29
  21	  32
  21	  33
  21	  34
  21	  35
  21	  36
  21	  37
  21	  40
  21	  42
  21	  43
  21	  44
  21	  45
  21	  47
  21	  48
  21	  51
  21	  55
  21	  56
  21	  57
  21	  59
  22	  23
  22	  24
  22	  25
  22	  28
  22	  29
  22	  32
  22	  37
  22	  39
  22	  41
  22	  42
  22	  43
  22	  45
  22	  46
  22	  47
  22	  49
  22	  52
  22	  54
  22	  55
  22	  56
  22	  59
  23	  24
  23	  25
  23	  26
  23	  28
  23	  29
  23	  30
  23	  34
  23	  35
  23	  36
  23	  37
  23	  40
  23	  41
  23	  43
  23	  50
  23	  51
  23	  53
  23	  55
  24	  25
  24	  27
  24	  30
  24	  33
  24	  35
  24	  38
  24	  40
  24	  42
  24	  43
  24	  44
  24	  45
  24	  49
  24	  54
  24	  55
  24	  56
  24	  57
  24	  58
  24	  59
  25	  27
  25	  28
  25	  34
  25	  38
  25	  41
  25	  42
  25	  44
  25	  46
  25	  47
  25	  48
  25	  50
  25	  53
  25	  55
  25	  56
  25	  57
  25	  58
  25	  59
  26	  29
  26	  32
  26	  33
  26	  35
  26	  36
  26	  37
  26	  39
  26	  42
  26	  46
  26	  48
  26	  49
  26	  51
  26	  53
  26	  54
  26	  57
  27	  30
  27	  31
  27	  33
  27	  36
  27	  37
  27	  38
  27	  39
  27	  40
  27	  42
  27	  44
  27	  45
  27	  46
  27	  47
  27	  48
  27	  49
  27	  51
  27	  52
  27	  53
  27	  55
  27	  58
  28	  30
  28	  32
  28	  34
  28	  36
  28	  38
  28	  39
  28	  44
  28	  46
  28	  47
  28	  49
  28	  50
  28	  51
  28	  52
  28	  53
  29	  31
  29	  33
  29	  35
  29	  36
  29	  38
  29	  39
  29	  40
  29	  44
  29	  45
  29	  48
  29	  49
  29	  50
  29	  51
  29	  52
  29	  54
  29	  56
  30	  31
  30	  33
  30	  34
  30	  35
  30	  39
  30	  44
  30	  48
  30	  50
  30	  52
  30	  53
  30	  55
  30	  57
  30	  58
  30	  59
  31	  32
  31	  34
  31	  41
  31	  42
  31	  43
  31	  45
  31	  48
  31	  50
  31	  51
  31	  53
  31	  58
  31	  59
  32	  33
  32	  35
  32	  36
  32	  39
  32	  40
  32	  44
  32	  45
  32	  46
  32	  48
  32	  50
  32	  52
  32	  56
  32	  57
  32	  58
  32	  59
  33	  35
  33	  37
  33	  38
  33	  40
  33	  42
  33	  44
  33	  46
  33	  47
  33	  49
  33	  51
  33	  53
  33	  55
  33	  57
  34	  36
  34	  37
  34	  39
  34	  42
  34	  43
  34	  45
  34	  47
  34	  49
  34	  52
  34	  53
  34	  54
  34	  57
  34	  59
  35	  36
  35	  38
  35	  39
  35	  42
  35	  46
  35	  47
  35	  48
  35	  49
  35	  51
  35	  53
  35	  56
  35	  57
  35	  58
  36	  37
  36	  40
  36	  41
  36	  42
  36	  43
  36	  45
  36	  46
  36	  47
  36	  51
  36	  53
  36	  54
  36	  55
  36	  56
  36	  58
  37	  42
  37	  45
  37	  47
  37	  48
  37	  49
  37	  51
  37	  52
  37	  53
  37	  55
  37	  56
  37	  58
  38	  40
  38	  41
  38	  44
  38	  45
  38	  47
  38	  48
  38	  50
  38	  51
  38	  52
  38	  55
  38	  57
  39	  41
  39	  42
  39	  43
  39	  45
  39	  47
  39	  51
  39	  55
  40	  43
  40	  44
  40	  46
  40	  49
  40	  50
  40	  51
  40	  52
  40	  53
  40	  54
  40	  56
  40	  57
  40	  59
  41	  42
  41	  43
  41	  44
  41	  46
  41	  47
  41	  50
  41	  51
  41	  52
  41	  55
  41	  56
  41	  57
  41	  58
  41	  59
  42	  43
  42	  45
  42	  46
  42	  48
  42	  49
  42	  54
  42	  56
  42	  57
  42	  58
  43	  46
  43	  49
  43	  50
  43	  51
  43	  54
  43	  55
  44	  45
  44	  46
  44	  47
  44	  48
  44	  49
  44	  50
  44	  53
  44	  56
  44	  57
  44	  58
  45	  47
  45	  48
  45	  49
  45	  50
  45	  53
  45	  55
  45	  57
  45	  59
  46	  48
  46	  51
  46	  54
  46	  57
  46	  58
  47	  48
  47	  49
  47	  50
  47	  51
  47	  53
  47	  54
  47	  55
  47	  57
  48	  49
  48	  50
  48	  52
  48	  54
  48	  55
  48	  57
  48	  59
  49	  52
  49	  53
  49	  55
  49	  56
  49	  57
  49	  58
  49	  59
  50	  52
  50	  55
  50	  56
  51	  52
  51	  57
  52	  53
  52	  57
  52	  58
  53	  58
  53	  59
  55	  57
  56	  57
  56	  59
  57	  59
;
